; Benchmark for LTL-sketching problem
(set-logic QF_UF)
(set-info :status unknown)
(declare-fun z_1_0 () Bool)
(declare-fun z_0_0 () Bool)
(declare-fun z_1_15 () Bool)
(declare-fun z_1_14 () Bool)
(declare-fun z_1_13 () Bool)
(declare-fun z_1_12 () Bool)
(declare-fun z_1_11 () Bool)
(declare-fun z_1_10 () Bool)
(declare-fun z_1_9 () Bool)
(declare-fun z_1_8 () Bool)
(declare-fun z_1_7 () Bool)
(declare-fun z_1_6 () Bool)
(declare-fun z_1_5 () Bool)
(declare-fun z_1_4 () Bool)
(declare-fun z_1_3 () Bool)
(declare-fun z_1_2 () Bool)
(declare-fun z_1_1 () Bool)
(declare-fun z_0_1 () Bool)
(declare-fun z_0_2 () Bool)
(declare-fun z_0_3 () Bool)
(declare-fun z_0_4 () Bool)
(declare-fun z_0_5 () Bool)
(declare-fun z_0_6 () Bool)
(declare-fun z_0_7 () Bool)
(declare-fun z_0_8 () Bool)
(declare-fun z_0_9 () Bool)
(declare-fun z_0_10 () Bool)
(declare-fun z_0_11 () Bool)
(declare-fun z_0_12 () Bool)
(declare-fun z_0_13 () Bool)
(declare-fun z_0_14 () Bool)
(declare-fun z_0_15 () Bool)
(declare-fun z_1_28 () Bool)
(declare-fun z_1_27 () Bool)
(declare-fun z_1_26 () Bool)
(declare-fun z_1_25 () Bool)
(declare-fun z_1_24 () Bool)
(declare-fun z_1_23 () Bool)
(declare-fun z_1_22 () Bool)
(declare-fun z_1_21 () Bool)
(declare-fun z_1_20 () Bool)
(declare-fun z_1_19 () Bool)
(declare-fun z_1_18 () Bool)
(declare-fun z_1_17 () Bool)
(declare-fun z_1_16 () Bool)
(declare-fun z_0_16 () Bool)
(declare-fun z_0_17 () Bool)
(declare-fun z_0_18 () Bool)
(declare-fun z_0_19 () Bool)
(declare-fun z_0_20 () Bool)
(declare-fun z_0_21 () Bool)
(declare-fun z_0_22 () Bool)
(declare-fun z_0_23 () Bool)
(declare-fun z_0_24 () Bool)
(declare-fun z_0_25 () Bool)
(declare-fun z_0_26 () Bool)
(declare-fun z_0_27 () Bool)
(declare-fun z_0_28 () Bool)
(declare-fun z_1_42 () Bool)
(declare-fun z_1_41 () Bool)
(declare-fun z_1_40 () Bool)
(declare-fun z_1_39 () Bool)
(declare-fun z_1_38 () Bool)
(declare-fun z_1_37 () Bool)
(declare-fun z_1_36 () Bool)
(declare-fun z_1_35 () Bool)
(declare-fun z_1_34 () Bool)
(declare-fun z_1_33 () Bool)
(declare-fun z_1_32 () Bool)
(declare-fun z_1_31 () Bool)
(declare-fun z_1_30 () Bool)
(declare-fun z_1_29 () Bool)
(declare-fun z_0_29 () Bool)
(declare-fun z_0_30 () Bool)
(declare-fun z_0_31 () Bool)
(declare-fun z_0_32 () Bool)
(declare-fun z_0_33 () Bool)
(declare-fun z_0_34 () Bool)
(declare-fun z_0_35 () Bool)
(declare-fun z_0_36 () Bool)
(declare-fun z_0_37 () Bool)
(declare-fun z_0_38 () Bool)
(declare-fun z_0_39 () Bool)
(declare-fun z_0_40 () Bool)
(declare-fun z_0_41 () Bool)
(declare-fun z_0_42 () Bool)
(declare-fun z_1_54 () Bool)
(declare-fun z_1_53 () Bool)
(declare-fun z_1_52 () Bool)
(declare-fun z_1_51 () Bool)
(declare-fun z_1_50 () Bool)
(declare-fun z_1_49 () Bool)
(declare-fun z_1_48 () Bool)
(declare-fun z_1_47 () Bool)
(declare-fun z_1_46 () Bool)
(declare-fun z_1_45 () Bool)
(declare-fun z_1_44 () Bool)
(declare-fun z_1_43 () Bool)
(declare-fun z_0_43 () Bool)
(declare-fun z_0_44 () Bool)
(declare-fun z_0_45 () Bool)
(declare-fun z_0_46 () Bool)
(declare-fun z_0_47 () Bool)
(declare-fun z_0_48 () Bool)
(declare-fun z_0_49 () Bool)
(declare-fun z_0_50 () Bool)
(declare-fun z_0_51 () Bool)
(declare-fun z_0_52 () Bool)
(declare-fun z_0_53 () Bool)
(declare-fun z_0_54 () Bool)
(declare-fun z_1_68 () Bool)
(declare-fun z_1_67 () Bool)
(declare-fun z_1_66 () Bool)
(declare-fun z_1_65 () Bool)
(declare-fun z_1_64 () Bool)
(declare-fun z_1_63 () Bool)
(declare-fun z_1_62 () Bool)
(declare-fun z_1_61 () Bool)
(declare-fun z_1_60 () Bool)
(declare-fun z_1_59 () Bool)
(declare-fun z_1_58 () Bool)
(declare-fun z_1_57 () Bool)
(declare-fun z_1_56 () Bool)
(declare-fun z_1_55 () Bool)
(declare-fun z_0_55 () Bool)
(declare-fun z_0_56 () Bool)
(declare-fun z_0_57 () Bool)
(declare-fun z_0_58 () Bool)
(declare-fun z_0_59 () Bool)
(declare-fun z_0_60 () Bool)
(declare-fun z_0_61 () Bool)
(declare-fun z_0_62 () Bool)
(declare-fun z_0_63 () Bool)
(declare-fun z_0_64 () Bool)
(declare-fun z_0_65 () Bool)
(declare-fun z_0_66 () Bool)
(declare-fun z_0_67 () Bool)
(declare-fun z_0_68 () Bool)
(declare-fun z_1_81 () Bool)
(declare-fun z_1_80 () Bool)
(declare-fun z_1_79 () Bool)
(declare-fun z_1_78 () Bool)
(declare-fun z_1_77 () Bool)
(declare-fun z_1_76 () Bool)
(declare-fun z_1_75 () Bool)
(declare-fun z_1_74 () Bool)
(declare-fun z_1_73 () Bool)
(declare-fun z_1_72 () Bool)
(declare-fun z_1_71 () Bool)
(declare-fun z_1_70 () Bool)
(declare-fun z_1_69 () Bool)
(declare-fun z_0_69 () Bool)
(declare-fun z_0_70 () Bool)
(declare-fun z_0_71 () Bool)
(declare-fun z_0_72 () Bool)
(declare-fun z_0_73 () Bool)
(declare-fun z_0_74 () Bool)
(declare-fun z_0_75 () Bool)
(declare-fun z_0_76 () Bool)
(declare-fun z_0_77 () Bool)
(declare-fun z_0_78 () Bool)
(declare-fun z_0_79 () Bool)
(declare-fun z_0_80 () Bool)
(declare-fun z_0_81 () Bool)
(declare-fun z_1_88 () Bool)
(declare-fun z_1_87 () Bool)
(declare-fun z_1_86 () Bool)
(declare-fun z_1_85 () Bool)
(declare-fun z_1_84 () Bool)
(declare-fun z_1_83 () Bool)
(declare-fun z_1_82 () Bool)
(declare-fun z_0_82 () Bool)
(declare-fun z_0_83 () Bool)
(declare-fun z_0_84 () Bool)
(declare-fun z_0_85 () Bool)
(declare-fun z_0_86 () Bool)
(declare-fun z_0_87 () Bool)
(declare-fun z_0_88 () Bool)
(declare-fun z_1_98 () Bool)
(declare-fun z_1_97 () Bool)
(declare-fun z_1_96 () Bool)
(declare-fun z_1_95 () Bool)
(declare-fun z_1_94 () Bool)
(declare-fun z_1_93 () Bool)
(declare-fun z_1_92 () Bool)
(declare-fun z_1_91 () Bool)
(declare-fun z_1_90 () Bool)
(declare-fun z_1_89 () Bool)
(declare-fun z_0_89 () Bool)
(declare-fun z_0_90 () Bool)
(declare-fun z_0_91 () Bool)
(declare-fun z_0_92 () Bool)
(declare-fun z_0_93 () Bool)
(declare-fun z_0_94 () Bool)
(declare-fun z_0_95 () Bool)
(declare-fun z_0_96 () Bool)
(declare-fun z_0_97 () Bool)
(declare-fun z_0_98 () Bool)
(declare-fun z_1_111 () Bool)
(declare-fun z_1_110 () Bool)
(declare-fun z_1_109 () Bool)
(declare-fun z_1_108 () Bool)
(declare-fun z_1_107 () Bool)
(declare-fun z_1_106 () Bool)
(declare-fun z_1_105 () Bool)
(declare-fun z_1_104 () Bool)
(declare-fun z_1_103 () Bool)
(declare-fun z_1_102 () Bool)
(declare-fun z_1_101 () Bool)
(declare-fun z_1_100 () Bool)
(declare-fun z_1_99 () Bool)
(declare-fun z_0_99 () Bool)
(declare-fun z_0_100 () Bool)
(declare-fun z_0_101 () Bool)
(declare-fun z_0_102 () Bool)
(declare-fun z_0_103 () Bool)
(declare-fun z_0_104 () Bool)
(declare-fun z_0_105 () Bool)
(declare-fun z_0_106 () Bool)
(declare-fun z_0_107 () Bool)
(declare-fun z_0_108 () Bool)
(declare-fun z_0_109 () Bool)
(declare-fun z_0_110 () Bool)
(declare-fun z_0_111 () Bool)
(declare-fun z_1_124 () Bool)
(declare-fun z_1_123 () Bool)
(declare-fun z_1_122 () Bool)
(declare-fun z_1_121 () Bool)
(declare-fun z_1_120 () Bool)
(declare-fun z_1_119 () Bool)
(declare-fun z_1_118 () Bool)
(declare-fun z_1_117 () Bool)
(declare-fun z_1_116 () Bool)
(declare-fun z_1_115 () Bool)
(declare-fun z_1_114 () Bool)
(declare-fun z_1_113 () Bool)
(declare-fun z_1_112 () Bool)
(declare-fun z_0_112 () Bool)
(declare-fun z_0_113 () Bool)
(declare-fun z_0_114 () Bool)
(declare-fun z_0_115 () Bool)
(declare-fun z_0_116 () Bool)
(declare-fun z_0_117 () Bool)
(declare-fun z_0_118 () Bool)
(declare-fun z_0_119 () Bool)
(declare-fun z_0_120 () Bool)
(declare-fun z_0_121 () Bool)
(declare-fun z_0_122 () Bool)
(declare-fun z_0_123 () Bool)
(declare-fun z_0_124 () Bool)
(declare-fun z_2_0 () Bool)
(declare-fun z_2_1 () Bool)
(declare-fun z_2_2 () Bool)
(declare-fun z_2_3 () Bool)
(declare-fun z_2_4 () Bool)
(declare-fun z_2_5 () Bool)
(declare-fun z_2_6 () Bool)
(declare-fun z_2_7 () Bool)
(declare-fun z_2_8 () Bool)
(declare-fun z_2_9 () Bool)
(declare-fun z_2_10 () Bool)
(declare-fun z_2_11 () Bool)
(declare-fun z_2_12 () Bool)
(declare-fun z_2_13 () Bool)
(declare-fun z_2_14 () Bool)
(declare-fun z_2_15 () Bool)
(declare-fun z_2_16 () Bool)
(declare-fun z_2_17 () Bool)
(declare-fun z_2_18 () Bool)
(declare-fun z_2_19 () Bool)
(declare-fun z_2_20 () Bool)
(declare-fun z_2_21 () Bool)
(declare-fun z_2_22 () Bool)
(declare-fun z_2_23 () Bool)
(declare-fun z_2_24 () Bool)
(declare-fun z_2_25 () Bool)
(declare-fun z_2_26 () Bool)
(declare-fun z_2_27 () Bool)
(declare-fun z_2_28 () Bool)
(declare-fun z_2_29 () Bool)
(declare-fun z_2_30 () Bool)
(declare-fun z_2_31 () Bool)
(declare-fun z_2_32 () Bool)
(declare-fun z_2_33 () Bool)
(declare-fun z_2_34 () Bool)
(declare-fun z_2_35 () Bool)
(declare-fun z_2_36 () Bool)
(declare-fun z_2_37 () Bool)
(declare-fun z_2_38 () Bool)
(declare-fun z_2_39 () Bool)
(declare-fun z_2_40 () Bool)
(declare-fun z_2_41 () Bool)
(declare-fun z_2_42 () Bool)
(declare-fun z_2_43 () Bool)
(declare-fun z_2_44 () Bool)
(declare-fun z_2_45 () Bool)
(declare-fun z_2_46 () Bool)
(declare-fun z_2_47 () Bool)
(declare-fun z_2_48 () Bool)
(declare-fun z_2_49 () Bool)
(declare-fun z_2_50 () Bool)
(declare-fun z_2_51 () Bool)
(declare-fun z_2_52 () Bool)
(declare-fun z_2_53 () Bool)
(declare-fun z_2_54 () Bool)
(declare-fun z_2_55 () Bool)
(declare-fun z_2_56 () Bool)
(declare-fun z_2_57 () Bool)
(declare-fun z_2_58 () Bool)
(declare-fun z_2_59 () Bool)
(declare-fun z_2_60 () Bool)
(declare-fun z_2_61 () Bool)
(declare-fun z_2_62 () Bool)
(declare-fun z_2_63 () Bool)
(declare-fun z_2_64 () Bool)
(declare-fun z_2_65 () Bool)
(declare-fun z_2_66 () Bool)
(declare-fun z_2_67 () Bool)
(declare-fun z_2_68 () Bool)
(declare-fun z_2_69 () Bool)
(declare-fun z_2_70 () Bool)
(declare-fun z_2_71 () Bool)
(declare-fun z_2_72 () Bool)
(declare-fun z_2_73 () Bool)
(declare-fun z_2_74 () Bool)
(declare-fun z_2_75 () Bool)
(declare-fun z_2_76 () Bool)
(declare-fun z_2_77 () Bool)
(declare-fun z_2_78 () Bool)
(declare-fun z_2_79 () Bool)
(declare-fun z_2_80 () Bool)
(declare-fun z_2_81 () Bool)
(declare-fun z_2_82 () Bool)
(declare-fun z_2_83 () Bool)
(declare-fun z_2_84 () Bool)
(declare-fun z_2_85 () Bool)
(declare-fun z_2_86 () Bool)
(declare-fun z_2_87 () Bool)
(declare-fun z_2_88 () Bool)
(declare-fun z_2_89 () Bool)
(declare-fun z_2_90 () Bool)
(declare-fun z_2_91 () Bool)
(declare-fun z_2_92 () Bool)
(declare-fun z_2_93 () Bool)
(declare-fun z_2_94 () Bool)
(declare-fun z_2_95 () Bool)
(declare-fun z_2_96 () Bool)
(declare-fun z_2_97 () Bool)
(declare-fun z_2_98 () Bool)
(declare-fun z_2_99 () Bool)
(declare-fun z_2_100 () Bool)
(declare-fun z_2_101 () Bool)
(declare-fun z_2_102 () Bool)
(declare-fun z_2_103 () Bool)
(declare-fun z_2_104 () Bool)
(declare-fun z_2_105 () Bool)
(declare-fun z_2_106 () Bool)
(declare-fun z_2_107 () Bool)
(declare-fun z_2_108 () Bool)
(declare-fun z_2_109 () Bool)
(declare-fun z_2_110 () Bool)
(declare-fun z_2_111 () Bool)
(declare-fun z_2_112 () Bool)
(declare-fun z_2_113 () Bool)
(declare-fun z_2_114 () Bool)
(declare-fun z_2_115 () Bool)
(declare-fun z_2_116 () Bool)
(declare-fun z_2_117 () Bool)
(declare-fun z_2_118 () Bool)
(declare-fun z_2_119 () Bool)
(declare-fun z_2_120 () Bool)
(declare-fun z_2_121 () Bool)
(declare-fun z_2_122 () Bool)
(declare-fun z_2_123 () Bool)
(declare-fun z_2_124 () Bool)
(assert
 (= z_0_0 (and z_1_0)))
(assert
 (let (($x44 (and z_1_1 z_1_2 z_1_3 z_1_4 z_1_5 z_1_6 z_1_7 z_1_8 z_1_9 z_1_10 z_1_11 z_1_12 z_1_13 z_1_14 z_1_15)))
 (= z_0_1 $x44)))
(assert
 (let (($x47 (and z_1_2 z_1_3 z_1_4 z_1_5 z_1_6 z_1_7 z_1_8 z_1_9 z_1_10 z_1_11 z_1_12 z_1_13 z_1_14 z_1_15)))
 (= z_0_2 $x47)))
(assert
 (let (($x50 (and z_1_3 z_1_4 z_1_5 z_1_6 z_1_7 z_1_8 z_1_9 z_1_10 z_1_11 z_1_12 z_1_13 z_1_14 z_1_15)))
 (= z_0_3 $x50)))
(assert
 (let (($x53 (and z_1_4 z_1_5 z_1_6 z_1_7 z_1_8 z_1_9 z_1_10 z_1_11 z_1_12 z_1_13 z_1_14 z_1_15)))
 (= z_0_4 $x53)))
(assert
 (let (($x56 (and z_1_5 z_1_6 z_1_7 z_1_8 z_1_9 z_1_10 z_1_11 z_1_12 z_1_13 z_1_14 z_1_15)))
 (= z_0_5 $x56)))
(assert
 (let (($x59 (and z_1_6 z_1_7 z_1_8 z_1_9 z_1_10 z_1_11 z_1_12 z_1_13 z_1_14 z_1_15)))
 (= z_0_6 $x59)))
(assert
 (let (($x62 (and z_1_7 z_1_8 z_1_9 z_1_10 z_1_11 z_1_12 z_1_13 z_1_14 z_1_15)))
 (= z_0_7 $x62)))
(assert
 (let (($x65 (and z_1_8 z_1_9 z_1_10 z_1_11 z_1_12 z_1_13 z_1_14 z_1_15)))
 (= z_0_8 $x65)))
(assert
 (let (($x68 (and z_1_9 z_1_10 z_1_11 z_1_12 z_1_13 z_1_14 z_1_15 z_1_8)))
 (= z_0_9 $x68)))
(assert
 (let (($x71 (and z_1_10 z_1_11 z_1_12 z_1_13 z_1_14 z_1_15 z_1_8 z_1_9)))
 (= z_0_10 $x71)))
(assert
 (let (($x74 (and z_1_11 z_1_12 z_1_13 z_1_14 z_1_15 z_1_8 z_1_9 z_1_10)))
 (= z_0_11 $x74)))
(assert
 (let (($x77 (and z_1_12 z_1_13 z_1_14 z_1_15 z_1_8 z_1_9 z_1_10 z_1_11)))
 (= z_0_12 $x77)))
(assert
 (let (($x80 (and z_1_13 z_1_14 z_1_15 z_1_8 z_1_9 z_1_10 z_1_11 z_1_12)))
 (= z_0_13 $x80)))
(assert
 (let (($x83 (and z_1_14 z_1_15 z_1_8 z_1_9 z_1_10 z_1_11 z_1_12 z_1_13)))
 (= z_0_14 $x83)))
(assert
 (let (($x86 (and z_1_15 z_1_8 z_1_9 z_1_10 z_1_11 z_1_12 z_1_13 z_1_14)))
 (= z_0_15 $x86)))
(assert
 (let (($x102 (and z_1_16 z_1_17 z_1_18 z_1_19 z_1_20 z_1_21 z_1_22 z_1_23 z_1_24 z_1_25 z_1_26 z_1_27 z_1_28)))
 (= z_0_16 $x102)))
(assert
 (let (($x105 (and z_1_17 z_1_18 z_1_19 z_1_20 z_1_21 z_1_22 z_1_23 z_1_24 z_1_25 z_1_26 z_1_27 z_1_28)))
 (= z_0_17 $x105)))
(assert
 (let (($x108 (and z_1_18 z_1_19 z_1_20 z_1_21 z_1_22 z_1_23 z_1_24 z_1_25 z_1_26 z_1_27 z_1_28)))
 (= z_0_18 $x108)))
(assert
 (let (($x111 (and z_1_19 z_1_20 z_1_21 z_1_22 z_1_23 z_1_24 z_1_25 z_1_26 z_1_27 z_1_28)))
 (= z_0_19 $x111)))
(assert
 (let (($x114 (and z_1_20 z_1_21 z_1_22 z_1_23 z_1_24 z_1_25 z_1_26 z_1_27 z_1_28)))
 (= z_0_20 $x114)))
(assert
 (let (($x117 (and z_1_21 z_1_22 z_1_23 z_1_24 z_1_25 z_1_26 z_1_27 z_1_28)))
 (= z_0_21 $x117)))
(assert
 (let (($x120 (and z_1_22 z_1_23 z_1_24 z_1_25 z_1_26 z_1_27 z_1_28 z_1_21)))
 (= z_0_22 $x120)))
(assert
 (let (($x123 (and z_1_23 z_1_24 z_1_25 z_1_26 z_1_27 z_1_28 z_1_21 z_1_22)))
 (= z_0_23 $x123)))
(assert
 (let (($x126 (and z_1_24 z_1_25 z_1_26 z_1_27 z_1_28 z_1_21 z_1_22 z_1_23)))
 (= z_0_24 $x126)))
(assert
 (let (($x129 (and z_1_25 z_1_26 z_1_27 z_1_28 z_1_21 z_1_22 z_1_23 z_1_24)))
 (= z_0_25 $x129)))
(assert
 (let (($x132 (and z_1_26 z_1_27 z_1_28 z_1_21 z_1_22 z_1_23 z_1_24 z_1_25)))
 (= z_0_26 $x132)))
(assert
 (let (($x135 (and z_1_27 z_1_28 z_1_21 z_1_22 z_1_23 z_1_24 z_1_25 z_1_26)))
 (= z_0_27 $x135)))
(assert
 (let (($x138 (and z_1_28 z_1_21 z_1_22 z_1_23 z_1_24 z_1_25 z_1_26 z_1_27)))
 (= z_0_28 $x138)))
(assert
 (let (($x155 (and z_1_29 z_1_30 z_1_31 z_1_32 z_1_33 z_1_34 z_1_35 z_1_36 z_1_37 z_1_38 z_1_39 z_1_40 z_1_41 z_1_42)))
 (= z_0_29 $x155)))
(assert
 (let (($x158 (and z_1_30 z_1_31 z_1_32 z_1_33 z_1_34 z_1_35 z_1_36 z_1_37 z_1_38 z_1_39 z_1_40 z_1_41 z_1_42)))
 (= z_0_30 $x158)))
(assert
 (let (($x161 (and z_1_31 z_1_32 z_1_33 z_1_34 z_1_35 z_1_36 z_1_37 z_1_38 z_1_39 z_1_40 z_1_41 z_1_42)))
 (= z_0_31 $x161)))
(assert
 (let (($x164 (and z_1_32 z_1_33 z_1_34 z_1_35 z_1_36 z_1_37 z_1_38 z_1_39 z_1_40 z_1_41 z_1_42)))
 (= z_0_32 $x164)))
(assert
 (let (($x167 (and z_1_33 z_1_34 z_1_35 z_1_36 z_1_37 z_1_38 z_1_39 z_1_40 z_1_41 z_1_42)))
 (= z_0_33 $x167)))
(assert
 (let (($x170 (and z_1_34 z_1_35 z_1_36 z_1_37 z_1_38 z_1_39 z_1_40 z_1_41 z_1_42)))
 (= z_0_34 $x170)))
(assert
 (let (($x173 (and z_1_35 z_1_36 z_1_37 z_1_38 z_1_39 z_1_40 z_1_41 z_1_42)))
 (= z_0_35 $x173)))
(assert
 (= z_0_36 (and z_1_36 z_1_37 z_1_38 z_1_39 z_1_40 z_1_41 z_1_42)))
(assert
 (= z_0_37 (and z_1_37 z_1_38 z_1_39 z_1_40 z_1_41 z_1_42)))
(assert
 (= z_0_38 (and z_1_38 z_1_39 z_1_40 z_1_41 z_1_42 z_1_37)))
(assert
 (= z_0_39 (and z_1_39 z_1_40 z_1_41 z_1_42 z_1_37 z_1_38)))
(assert
 (= z_0_40 (and z_1_40 z_1_41 z_1_42 z_1_37 z_1_38 z_1_39)))
(assert
 (= z_0_41 (and z_1_41 z_1_42 z_1_37 z_1_38 z_1_39 z_1_40)))
(assert
 (= z_0_42 (and z_1_42 z_1_37 z_1_38 z_1_39 z_1_40 z_1_41)))
(assert
 (let (($x209 (and z_1_43 z_1_44 z_1_45 z_1_46 z_1_47 z_1_48 z_1_49 z_1_50 z_1_51 z_1_52 z_1_53 z_1_54)))
 (= z_0_43 $x209)))
(assert
 (let (($x212 (and z_1_44 z_1_45 z_1_46 z_1_47 z_1_48 z_1_49 z_1_50 z_1_51 z_1_52 z_1_53 z_1_54)))
 (= z_0_44 $x212)))
(assert
 (let (($x215 (and z_1_45 z_1_46 z_1_47 z_1_48 z_1_49 z_1_50 z_1_51 z_1_52 z_1_53 z_1_54)))
 (= z_0_45 $x215)))
(assert
 (let (($x218 (and z_1_46 z_1_47 z_1_48 z_1_49 z_1_50 z_1_51 z_1_52 z_1_53 z_1_54)))
 (= z_0_46 $x218)))
(assert
 (let (($x221 (and z_1_47 z_1_48 z_1_49 z_1_50 z_1_51 z_1_52 z_1_53 z_1_54)))
 (= z_0_47 $x221)))
(assert
 (= z_0_48 (and z_1_48 z_1_49 z_1_50 z_1_51 z_1_52 z_1_53 z_1_54)))
(assert
 (= z_0_49 (and z_1_49 z_1_50 z_1_51 z_1_52 z_1_53 z_1_54 z_1_48)))
(assert
 (= z_0_50 (and z_1_50 z_1_51 z_1_52 z_1_53 z_1_54 z_1_48 z_1_49)))
(assert
 (= z_0_51 (and z_1_51 z_1_52 z_1_53 z_1_54 z_1_48 z_1_49 z_1_50)))
(assert
 (= z_0_52 (and z_1_52 z_1_53 z_1_54 z_1_48 z_1_49 z_1_50 z_1_51)))
(assert
 (= z_0_53 (and z_1_53 z_1_54 z_1_48 z_1_49 z_1_50 z_1_51 z_1_52)))
(assert
 (= z_0_54 (and z_1_54 z_1_48 z_1_49 z_1_50 z_1_51 z_1_52 z_1_53)))
(assert
 (let (($x259 (and z_1_55 z_1_56 z_1_57 z_1_58 z_1_59 z_1_60 z_1_61 z_1_62 z_1_63 z_1_64 z_1_65 z_1_66 z_1_67 z_1_68)))
 (= z_0_55 $x259)))
(assert
 (let (($x262 (and z_1_56 z_1_57 z_1_58 z_1_59 z_1_60 z_1_61 z_1_62 z_1_63 z_1_64 z_1_65 z_1_66 z_1_67 z_1_68)))
 (= z_0_56 $x262)))
(assert
 (let (($x265 (and z_1_57 z_1_58 z_1_59 z_1_60 z_1_61 z_1_62 z_1_63 z_1_64 z_1_65 z_1_66 z_1_67 z_1_68)))
 (= z_0_57 $x265)))
(assert
 (let (($x268 (and z_1_58 z_1_59 z_1_60 z_1_61 z_1_62 z_1_63 z_1_64 z_1_65 z_1_66 z_1_67 z_1_68)))
 (= z_0_58 $x268)))
(assert
 (let (($x271 (and z_1_59 z_1_60 z_1_61 z_1_62 z_1_63 z_1_64 z_1_65 z_1_66 z_1_67 z_1_68)))
 (= z_0_59 $x271)))
(assert
 (let (($x274 (and z_1_60 z_1_61 z_1_62 z_1_63 z_1_64 z_1_65 z_1_66 z_1_67 z_1_68)))
 (= z_0_60 $x274)))
(assert
 (let (($x277 (and z_1_61 z_1_62 z_1_63 z_1_64 z_1_65 z_1_66 z_1_67 z_1_68)))
 (= z_0_61 $x277)))
(assert
 (let (($x280 (and z_1_62 z_1_63 z_1_64 z_1_65 z_1_66 z_1_67 z_1_68 z_1_61)))
 (= z_0_62 $x280)))
(assert
 (let (($x283 (and z_1_63 z_1_64 z_1_65 z_1_66 z_1_67 z_1_68 z_1_61 z_1_62)))
 (= z_0_63 $x283)))
(assert
 (let (($x286 (and z_1_64 z_1_65 z_1_66 z_1_67 z_1_68 z_1_61 z_1_62 z_1_63)))
 (= z_0_64 $x286)))
(assert
 (let (($x289 (and z_1_65 z_1_66 z_1_67 z_1_68 z_1_61 z_1_62 z_1_63 z_1_64)))
 (= z_0_65 $x289)))
(assert
 (let (($x292 (and z_1_66 z_1_67 z_1_68 z_1_61 z_1_62 z_1_63 z_1_64 z_1_65)))
 (= z_0_66 $x292)))
(assert
 (let (($x295 (and z_1_67 z_1_68 z_1_61 z_1_62 z_1_63 z_1_64 z_1_65 z_1_66)))
 (= z_0_67 $x295)))
(assert
 (let (($x298 (and z_1_68 z_1_61 z_1_62 z_1_63 z_1_64 z_1_65 z_1_66 z_1_67)))
 (= z_0_68 $x298)))
(assert
 (let (($x314 (and z_1_69 z_1_70 z_1_71 z_1_72 z_1_73 z_1_74 z_1_75 z_1_76 z_1_77 z_1_78 z_1_79 z_1_80 z_1_81)))
 (= z_0_69 $x314)))
(assert
 (let (($x317 (and z_1_70 z_1_71 z_1_72 z_1_73 z_1_74 z_1_75 z_1_76 z_1_77 z_1_78 z_1_79 z_1_80 z_1_81)))
 (= z_0_70 $x317)))
(assert
 (let (($x320 (and z_1_71 z_1_72 z_1_73 z_1_74 z_1_75 z_1_76 z_1_77 z_1_78 z_1_79 z_1_80 z_1_81)))
 (= z_0_71 $x320)))
(assert
 (let (($x323 (and z_1_72 z_1_73 z_1_74 z_1_75 z_1_76 z_1_77 z_1_78 z_1_79 z_1_80 z_1_81)))
 (= z_0_72 $x323)))
(assert
 (let (($x326 (and z_1_73 z_1_74 z_1_75 z_1_76 z_1_77 z_1_78 z_1_79 z_1_80 z_1_81)))
 (= z_0_73 $x326)))
(assert
 (let (($x329 (and z_1_74 z_1_75 z_1_76 z_1_77 z_1_78 z_1_79 z_1_80 z_1_81)))
 (= z_0_74 $x329)))
(assert
 (= z_0_75 (and z_1_75 z_1_76 z_1_77 z_1_78 z_1_79 z_1_80 z_1_81)))
(assert
 (= z_0_76 (and z_1_76 z_1_77 z_1_78 z_1_79 z_1_80 z_1_81 z_1_75)))
(assert
 (= z_0_77 (and z_1_77 z_1_78 z_1_79 z_1_80 z_1_81 z_1_75 z_1_76)))
(assert
 (= z_0_78 (and z_1_78 z_1_79 z_1_80 z_1_81 z_1_75 z_1_76 z_1_77)))
(assert
 (= z_0_79 (and z_1_79 z_1_80 z_1_81 z_1_75 z_1_76 z_1_77 z_1_78)))
(assert
 (= z_0_80 (and z_1_80 z_1_81 z_1_75 z_1_76 z_1_77 z_1_78 z_1_79)))
(assert
 (= z_0_81 (and z_1_81 z_1_75 z_1_76 z_1_77 z_1_78 z_1_79 z_1_80)))
(assert
 (let (($x360 (and z_1_82 z_1_83 z_1_84 z_1_85 z_1_86 z_1_87 z_1_88 z_1_28 z_1_21 z_1_22 z_1_23 z_1_24 z_1_25 z_1_26 z_1_27)))
 (= z_0_82 $x360)))
(assert
 (let (($x363 (and z_1_83 z_1_84 z_1_85 z_1_86 z_1_87 z_1_88 z_1_28 z_1_21 z_1_22 z_1_23 z_1_24 z_1_25 z_1_26 z_1_27)))
 (= z_0_83 $x363)))
(assert
 (let (($x366 (and z_1_84 z_1_85 z_1_86 z_1_87 z_1_88 z_1_28 z_1_21 z_1_22 z_1_23 z_1_24 z_1_25 z_1_26 z_1_27)))
 (= z_0_84 $x366)))
(assert
 (let (($x369 (and z_1_85 z_1_86 z_1_87 z_1_88 z_1_28 z_1_21 z_1_22 z_1_23 z_1_24 z_1_25 z_1_26 z_1_27)))
 (= z_0_85 $x369)))
(assert
 (let (($x372 (and z_1_86 z_1_87 z_1_88 z_1_28 z_1_21 z_1_22 z_1_23 z_1_24 z_1_25 z_1_26 z_1_27)))
 (= z_0_86 $x372)))
(assert
 (let (($x375 (and z_1_87 z_1_88 z_1_28 z_1_21 z_1_22 z_1_23 z_1_24 z_1_25 z_1_26 z_1_27)))
 (= z_0_87 $x375)))
(assert
 (let (($x378 (and z_1_88 z_1_28 z_1_21 z_1_22 z_1_23 z_1_24 z_1_25 z_1_26 z_1_27)))
 (= z_0_88 $x378)))
(assert
 (let (($x391 (and z_1_89 z_1_90 z_1_91 z_1_92 z_1_93 z_1_94 z_1_95 z_1_96 z_1_97 z_1_98)))
 (= z_0_89 $x391)))
(assert
 (let (($x394 (and z_1_90 z_1_91 z_1_92 z_1_93 z_1_94 z_1_95 z_1_96 z_1_97 z_1_98)))
 (= z_0_90 $x394)))
(assert
 (let (($x397 (and z_1_91 z_1_92 z_1_93 z_1_94 z_1_95 z_1_96 z_1_97 z_1_98)))
 (= z_0_91 $x397)))
(assert
 (= z_0_92 (and z_1_92 z_1_93 z_1_94 z_1_95 z_1_96 z_1_97 z_1_98)))
(assert
 (= z_0_93 (and z_1_93 z_1_94 z_1_95 z_1_96 z_1_97 z_1_98)))
(assert
 (= z_0_94 (and z_1_94 z_1_95 z_1_96 z_1_97 z_1_98 z_1_93)))
(assert
 (= z_0_95 (and z_1_95 z_1_96 z_1_97 z_1_98 z_1_93 z_1_94)))
(assert
 (= z_0_96 (and z_1_96 z_1_97 z_1_98 z_1_93 z_1_94 z_1_95)))
(assert
 (= z_0_97 (and z_1_97 z_1_98 z_1_93 z_1_94 z_1_95 z_1_96)))
(assert
 (= z_0_98 (and z_1_98 z_1_93 z_1_94 z_1_95 z_1_96 z_1_97)))
(assert
 (let (($x434 (and z_1_99 z_1_100 z_1_101 z_1_102 z_1_103 z_1_104 z_1_105 z_1_106 z_1_107 z_1_108 z_1_109 z_1_110 z_1_111)))
 (= z_0_99 $x434)))
(assert
 (let (($x437 (and z_1_100 z_1_101 z_1_102 z_1_103 z_1_104 z_1_105 z_1_106 z_1_107 z_1_108 z_1_109 z_1_110 z_1_111)))
 (= z_0_100 $x437)))
(assert
 (let (($x440 (and z_1_101 z_1_102 z_1_103 z_1_104 z_1_105 z_1_106 z_1_107 z_1_108 z_1_109 z_1_110 z_1_111)))
 (= z_0_101 $x440)))
(assert
 (let (($x443 (and z_1_102 z_1_103 z_1_104 z_1_105 z_1_106 z_1_107 z_1_108 z_1_109 z_1_110 z_1_111)))
 (= z_0_102 $x443)))
(assert
 (let (($x446 (and z_1_103 z_1_104 z_1_105 z_1_106 z_1_107 z_1_108 z_1_109 z_1_110 z_1_111)))
 (= z_0_103 $x446)))
(assert
 (let (($x449 (and z_1_104 z_1_105 z_1_106 z_1_107 z_1_108 z_1_109 z_1_110 z_1_111)))
 (= z_0_104 $x449)))
(assert
 (let (($x452 (and z_1_105 z_1_106 z_1_107 z_1_108 z_1_109 z_1_110 z_1_111 z_1_104)))
 (= z_0_105 $x452)))
(assert
 (let (($x455 (and z_1_106 z_1_107 z_1_108 z_1_109 z_1_110 z_1_111 z_1_104 z_1_105)))
 (= z_0_106 $x455)))
(assert
 (let (($x458 (and z_1_107 z_1_108 z_1_109 z_1_110 z_1_111 z_1_104 z_1_105 z_1_106)))
 (= z_0_107 $x458)))
(assert
 (let (($x461 (and z_1_108 z_1_109 z_1_110 z_1_111 z_1_104 z_1_105 z_1_106 z_1_107)))
 (= z_0_108 $x461)))
(assert
 (let (($x464 (and z_1_109 z_1_110 z_1_111 z_1_104 z_1_105 z_1_106 z_1_107 z_1_108)))
 (= z_0_109 $x464)))
(assert
 (let (($x467 (and z_1_110 z_1_111 z_1_104 z_1_105 z_1_106 z_1_107 z_1_108 z_1_109)))
 (= z_0_110 $x467)))
(assert
 (let (($x470 (and z_1_111 z_1_104 z_1_105 z_1_106 z_1_107 z_1_108 z_1_109 z_1_110)))
 (= z_0_111 $x470)))
(assert
 (let (($x486 (and z_1_112 z_1_113 z_1_114 z_1_115 z_1_116 z_1_117 z_1_118 z_1_119 z_1_120 z_1_121 z_1_122 z_1_123 z_1_124)))
 (= z_0_112 $x486)))
(assert
 (let (($x489 (and z_1_113 z_1_114 z_1_115 z_1_116 z_1_117 z_1_118 z_1_119 z_1_120 z_1_121 z_1_122 z_1_123 z_1_124)))
 (= z_0_113 $x489)))
(assert
 (let (($x492 (and z_1_114 z_1_115 z_1_116 z_1_117 z_1_118 z_1_119 z_1_120 z_1_121 z_1_122 z_1_123 z_1_124)))
 (= z_0_114 $x492)))
(assert
 (let (($x495 (and z_1_115 z_1_116 z_1_117 z_1_118 z_1_119 z_1_120 z_1_121 z_1_122 z_1_123 z_1_124)))
 (= z_0_115 $x495)))
(assert
 (let (($x498 (and z_1_116 z_1_117 z_1_118 z_1_119 z_1_120 z_1_121 z_1_122 z_1_123 z_1_124)))
 (= z_0_116 $x498)))
(assert
 (let (($x501 (and z_1_117 z_1_118 z_1_119 z_1_120 z_1_121 z_1_122 z_1_123 z_1_124)))
 (= z_0_117 $x501)))
(assert
 (let (($x504 (and z_1_118 z_1_119 z_1_120 z_1_121 z_1_122 z_1_123 z_1_124)))
 (= z_0_118 $x504)))
(assert
 (let (($x507 (and z_1_119 z_1_120 z_1_121 z_1_122 z_1_123 z_1_124 z_1_118)))
 (= z_0_119 $x507)))
(assert
 (let (($x510 (and z_1_120 z_1_121 z_1_122 z_1_123 z_1_124 z_1_118 z_1_119)))
 (= z_0_120 $x510)))
(assert
 (let (($x513 (and z_1_121 z_1_122 z_1_123 z_1_124 z_1_118 z_1_119 z_1_120)))
 (= z_0_121 $x513)))
(assert
 (let (($x516 (and z_1_122 z_1_123 z_1_124 z_1_118 z_1_119 z_1_120 z_1_121)))
 (= z_0_122 $x516)))
(assert
 (let (($x519 (and z_1_123 z_1_124 z_1_118 z_1_119 z_1_120 z_1_121 z_1_122)))
 (= z_0_123 $x519)))
(assert
 (let (($x522 (and z_1_124 z_1_118 z_1_119 z_1_120 z_1_121 z_1_122 z_1_123)))
 (= z_0_124 $x522)))
(assert
 (= z_1_0 (not z_2_0)))
(assert
 (= z_1_1 (not z_2_1)))
(assert
 (= z_1_2 (not z_2_2)))
(assert
 (= z_1_3 (not z_2_3)))
(assert
 (= z_1_4 (not z_2_4)))
(assert
 (= z_1_5 (not z_2_5)))
(assert
 (= z_1_6 (not z_2_6)))
(assert
 (= z_1_7 (not z_2_7)))
(assert
 (= z_1_8 (not z_2_8)))
(assert
 (= z_1_9 (not z_2_9)))
(assert
 (= z_1_10 (not z_2_10)))
(assert
 (= z_1_11 (not z_2_11)))
(assert
 (= z_1_12 (not z_2_12)))
(assert
 (= z_1_13 (not z_2_13)))
(assert
 (= z_1_14 (not z_2_14)))
(assert
 (= z_1_15 (not z_2_15)))
(assert
 (= z_1_16 (not z_2_16)))
(assert
 (= z_1_17 (not z_2_17)))
(assert
 (= z_1_18 (not z_2_18)))
(assert
 (= z_1_19 (not z_2_19)))
(assert
 (= z_1_20 (not z_2_20)))
(assert
 (= z_1_21 (not z_2_21)))
(assert
 (= z_1_22 (not z_2_22)))
(assert
 (= z_1_23 (not z_2_23)))
(assert
 (= z_1_24 (not z_2_24)))
(assert
 (= z_1_25 (not z_2_25)))
(assert
 (= z_1_26 (not z_2_26)))
(assert
 (= z_1_27 (not z_2_27)))
(assert
 (= z_1_28 (not z_2_28)))
(assert
 (= z_1_29 (not z_2_29)))
(assert
 (= z_1_30 (not z_2_30)))
(assert
 (= z_1_31 (not z_2_31)))
(assert
 (= z_1_32 (not z_2_32)))
(assert
 (= z_1_33 (not z_2_33)))
(assert
 (= z_1_34 (not z_2_34)))
(assert
 (= z_1_35 (not z_2_35)))
(assert
 (= z_1_36 (not z_2_36)))
(assert
 (= z_1_37 (not z_2_37)))
(assert
 (= z_1_38 (not z_2_38)))
(assert
 (= z_1_39 (not z_2_39)))
(assert
 (= z_1_40 (not z_2_40)))
(assert
 (= z_1_41 (not z_2_41)))
(assert
 (= z_1_42 (not z_2_42)))
(assert
 (= z_1_43 (not z_2_43)))
(assert
 (= z_1_44 (not z_2_44)))
(assert
 (= z_1_45 (not z_2_45)))
(assert
 (= z_1_46 (not z_2_46)))
(assert
 (= z_1_47 (not z_2_47)))
(assert
 (= z_1_48 (not z_2_48)))
(assert
 (= z_1_49 (not z_2_49)))
(assert
 (= z_1_50 (not z_2_50)))
(assert
 (= z_1_51 (not z_2_51)))
(assert
 (= z_1_52 (not z_2_52)))
(assert
 (= z_1_53 (not z_2_53)))
(assert
 (= z_1_54 (not z_2_54)))
(assert
 (= z_1_55 (not z_2_55)))
(assert
 (= z_1_56 (not z_2_56)))
(assert
 (= z_1_57 (not z_2_57)))
(assert
 (= z_1_58 (not z_2_58)))
(assert
 (= z_1_59 (not z_2_59)))
(assert
 (= z_1_60 (not z_2_60)))
(assert
 (= z_1_61 (not z_2_61)))
(assert
 (= z_1_62 (not z_2_62)))
(assert
 (= z_1_63 (not z_2_63)))
(assert
 (= z_1_64 (not z_2_64)))
(assert
 (= z_1_65 (not z_2_65)))
(assert
 (= z_1_66 (not z_2_66)))
(assert
 (= z_1_67 (not z_2_67)))
(assert
 (= z_1_68 (not z_2_68)))
(assert
 (= z_1_69 (not z_2_69)))
(assert
 (= z_1_70 (not z_2_70)))
(assert
 (= z_1_71 (not z_2_71)))
(assert
 (= z_1_72 (not z_2_72)))
(assert
 (= z_1_73 (not z_2_73)))
(assert
 (= z_1_74 (not z_2_74)))
(assert
 (= z_1_75 (not z_2_75)))
(assert
 (= z_1_76 (not z_2_76)))
(assert
 (= z_1_77 (not z_2_77)))
(assert
 (= z_1_78 (not z_2_78)))
(assert
 (= z_1_79 (not z_2_79)))
(assert
 (= z_1_80 (not z_2_80)))
(assert
 (= z_1_81 (not z_2_81)))
(assert
 (= z_1_82 (not z_2_82)))
(assert
 (= z_1_83 (not z_2_83)))
(assert
 (= z_1_84 (not z_2_84)))
(assert
 (= z_1_85 (not z_2_85)))
(assert
 (= z_1_86 (not z_2_86)))
(assert
 (= z_1_87 (not z_2_87)))
(assert
 (= z_1_88 (not z_2_88)))
(assert
 (= z_1_89 (not z_2_89)))
(assert
 (= z_1_90 (not z_2_90)))
(assert
 (= z_1_91 (not z_2_91)))
(assert
 (= z_1_92 (not z_2_92)))
(assert
 (= z_1_93 (not z_2_93)))
(assert
 (= z_1_94 (not z_2_94)))
(assert
 (= z_1_95 (not z_2_95)))
(assert
 (= z_1_96 (not z_2_96)))
(assert
 (= z_1_97 (not z_2_97)))
(assert
 (= z_1_98 (not z_2_98)))
(assert
 (= z_1_99 (not z_2_99)))
(assert
 (= z_1_100 (not z_2_100)))
(assert
 (= z_1_101 (not z_2_101)))
(assert
 (= z_1_102 (not z_2_102)))
(assert
 (= z_1_103 (not z_2_103)))
(assert
 (= z_1_104 (not z_2_104)))
(assert
 (= z_1_105 (not z_2_105)))
(assert
 (= z_1_106 (not z_2_106)))
(assert
 (= z_1_107 (not z_2_107)))
(assert
 (= z_1_108 (not z_2_108)))
(assert
 (= z_1_109 (not z_2_109)))
(assert
 (= z_1_110 (not z_2_110)))
(assert
 (= z_1_111 (not z_2_111)))
(assert
 (= z_1_112 (not z_2_112)))
(assert
 (= z_1_113 (not z_2_113)))
(assert
 (= z_1_114 (not z_2_114)))
(assert
 (= z_1_115 (not z_2_115)))
(assert
 (= z_1_116 (not z_2_116)))
(assert
 (= z_1_117 (not z_2_117)))
(assert
 (= z_1_118 (not z_2_118)))
(assert
 (= z_1_119 (not z_2_119)))
(assert
 (= z_1_120 (not z_2_120)))
(assert
 (= z_1_121 (not z_2_121)))
(assert
 (= z_1_122 (not z_2_122)))
(assert
 (= z_1_123 (not z_2_123)))
(assert
 (= z_1_124 (not z_2_124)))
(assert
 z_0_0)
(assert
 (not z_0_1))
(assert
 (not z_0_16))
(assert
 (not z_0_29))
(assert
 (not z_0_43))
(assert
 (not z_0_55))
(assert
 (not z_0_69))
(assert
 (not z_0_82))
(assert
 (not z_0_89))
(assert
 (not z_0_99))
(assert
 (not z_0_112))
(check-sat)

